NAME:  kh8
TYPE: ATSP
COMMENT: 8 city problem (kh)
DIMENSION:  8
EDGE_WEIGHT_TYPE: EXPLICIT
EDGE_WEIGHT_FORMAT: FULL_MATRIX 
EDGE_WEIGHT_SECTION
 9999   76   43   38   51   42   19   80    
   42 9999   49   26   78   52   39   87
   48   28 9999   36   53   44   68   61   
   72   31   29 9999   42   49   50   38   
   30   52   38   47 9999   64   75   82  
   66   51   83   51   22 9999   27   71 
   77   62   93   54   69   38 9999   26 
   42   58   66   76   41   52   83 9999 
EOF